[VALIDATOR STDOUT]
Checking plan: /home/jfan5/Safety-gen/runs/benchmark/optic/grippers_20260205_114054/grippers/optic_results/grippers-n2-r17-o15-s15001.plan
Plan executed successfully - checking goal
Plan valid
Final value: 45 

Successful plans:
Value: 45
 /home/jfan5/Safety-gen/runs/benchmark/optic/grippers_20260205_114054/grippers/optic_results/grippers-n2-r17-o15-s15001.plan 45
